18
1.19
39
911	1071	1022
898	1077	1017
945	1065	1016
971	1005	1010
853	1081	984
871	1079	981
831	1083	981
955	1110	975
981	1050	969
1007	1011	954
990	1030	952
1008	937	937
858	1120	927
876	1118	924
1017	1056	913
952	1116	909
1018	982	896
1052	976	890
